NAME: instance_3209
TYPE: TSP
DIMENSION: 20
EDGE_WEIGHT_TYPE: EUC_2D
NODE_COORD_SECTION
0 21.63 25.99
1 38.42 28.74
2 38.20 74.55
3 4.78 45.47
4 32.80 7.19
5 9.48 44.61
6 65.46 81.93
7 63.93 79.51
8 29.50 14.78
9 11.98 50.02
10 59.31 22.27
11 3.46 8.89
12 31.38 80.41
13 64.45 96.34
14 46.29 48.97
15 38.24 81.04
16 22.20 63.63
17 96.06 47.82
18 46.34 18.94
19 83.76 71.99
EOF
